&user_inputs
x_domain%beg = -0.192
x_domain%end = 0.96
y_domain%beg = 0.0
y_domain%end = 0.28800000000000003
stretch_y = T
a_y = 3.67
y_a = -0.2736
y_b = 0.2736
loops_y = 2
m = 239
n = 59
p = 0
t_step_start = 0
elliptic_smoothing = T
elliptic_smoothing_iters = 20
num_patches = 3
model_eqns = 2
num_fluids = 2
mpp_lim = F
weno_order = 3
bc_x%beg = -6
bc_x%end = -6
bc_y%beg = -2
bc_y%end = -3
precision = 2
parallel_io = T
patch_icpp(1)%geometry = 3
patch_icpp(1)%x_centroid = 0.384
patch_icpp(1)%y_centroid = 0.28800000000000003
patch_icpp(1)%length_x = 1.1520000000000001
patch_icpp(1)%length_y = 0.672
patch_icpp(1)%vel(1) = 0.0
patch_icpp(1)%vel(2) = 0.0
patch_icpp(1)%pres = 101325.0
patch_icpp(1)%alpha_rho(1) = 0.001
patch_icpp(1)%alpha_rho(2) = 1.2039987959999998
patch_icpp(1)%alpha(1) = 1e-06
patch_icpp(1)%alpha(2) = 0.999999
patch_icpp(2)%geometry = 3
patch_icpp(2)%alter_patch(1) = T
patch_icpp(2)%x_centroid = -0.12
patch_icpp(2)%y_centroid = 0.28800000000000003
patch_icpp(2)%length_x = 0.14400000000000002
patch_icpp(2)%length_y = 0.672
patch_icpp(2)%vel(1) = 196.1421953515923
patch_icpp(2)%vel(2) = 0.0
patch_icpp(2)%pres = 214808.99999999997
patch_icpp(2)%alpha_rho(1) = 0.001
patch_icpp(2)%alpha_rho(2) = 2.034342793241379
patch_icpp(2)%alpha(1) = 1e-06
patch_icpp(2)%alpha(2) = 0.999999
patch_icpp(3)%geometry = 2
patch_icpp(3)%x_centroid = 0
patch_icpp(3)%y_centroid = 0
patch_icpp(3)%radius = 0.024
patch_icpp(3)%alter_patch(1) = T
patch_icpp(3)%vel(1) = 0.0
patch_icpp(3)%vel(2) = 0.0
patch_icpp(3)%pres = 101325.0
patch_icpp(3)%alpha_rho(1) = 999.999
patch_icpp(3)%alpha_rho(2) = 1.1699999999999998e-06
patch_icpp(3)%alpha(1) = 0.999999
patch_icpp(3)%alpha(2) = 1e-06
fluid_pp(1)%gamma = 0.1953125
fluid_pp(1)%pi_inf = 409992187.5
fluid_pp(2)%gamma = 2.5000000000000004
fluid_pp(2)%pi_inf = 0.0
&end/
