&user_inputs
x_domain%beg = -0.008470700000000001
x_domain%end = 0.0096226
y_domain%beg = 0.0
y_domain%end = 0.01
z_domain%beg = 0.0
z_domain%end = 0.01
m = 198
n = 99
p = 99
cyl_coord = F
t_step_start = 0
num_patches = 3
model_eqns = 2
num_fluids = 2
mpp_lim = T
weno_order = 3
bc_x%beg = -6
bc_x%end = -6
bc_y%beg = -2
bc_y%end = -3
bc_z%beg = -2
bc_z%end = -3
precision = 2
parallel_io = F
patch_icpp(1)%geometry = 9
patch_icpp(1)%x_centroid = 0.002303799999999998
patch_icpp(1)%y_centroid = 0.02
patch_icpp(1)%z_centroid = 0.02
patch_icpp(1)%length_x = 0.0723732
patch_icpp(1)%length_y = 0.04
patch_icpp(1)%length_z = 0.04
patch_icpp(1)%vel(1) = 0.0
patch_icpp(1)%vel(2) = 0.0
patch_icpp(1)%vel(3) = 0.0
patch_icpp(1)%pres = 101325
patch_icpp(1)%alpha_rho(1) = 0.0
patch_icpp(1)%alpha_rho(2) = 1.204
patch_icpp(1)%alpha(1) = 0.0
patch_icpp(1)%alpha(2) = 1.0
patch_icpp(2)%geometry = 9
patch_icpp(2)%alter_patch(1) = T
patch_icpp(2)%x_centroid = -0.0368116
patch_icpp(2)%y_centroid = 0.02
patch_icpp(2)%z_centroid = 0.02
patch_icpp(2)%length_x = 0.0723732
patch_icpp(2)%length_y = 0.04
patch_icpp(2)%length_z = 0.04
patch_icpp(2)%vel(1) = 567.3140580829041
patch_icpp(2)%vel(2) = 0.0
patch_icpp(2)%vel(3) = 0.0
patch_icpp(2)%pres = 664016.5
patch_icpp(2)%alpha_rho(1) = 0.0
patch_icpp(2)%alpha_rho(2) = 3.8671226765799256
patch_icpp(2)%alpha(1) = 0.0
patch_icpp(2)%alpha(2) = 1.0
patch_icpp(3)%geometry = 8
patch_icpp(3)%x_centroid = 0.0
patch_icpp(3)%y_centroid = 0.0
patch_icpp(3)%z_centroid = 0.0
patch_icpp(3)%radius = 0.0005
patch_icpp(3)%alter_patch(1) = T
patch_icpp(3)%vel(1) = 0.0
patch_icpp(3)%vel(2) = 0.0
patch_icpp(3)%vel(3) = 0.0
patch_icpp(3)%pres = 101325.0
patch_icpp(3)%alpha_rho(1) = 1000
patch_icpp(3)%alpha_rho(2) = 0.0
patch_icpp(3)%alpha(1) = 1.0
patch_icpp(3)%alpha(2) = 0.0
fluid_pp(1)%gamma = 0.1953125
fluid_pp(1)%pi_inf = 409992187.5
fluid_pp(2)%gamma = 2.5000000000000004
fluid_pp(2)%pi_inf = 0.0
&end/
