&user_inputs
run_time_info = F
m = 634
n = 317
p = 317
cyl_coord = F
dt = 3.4642418505850456e-09
t_step_start = 0
t_step_stop = 20
t_step_save = 20
model_eqns = 2
alt_soundspeed = F
num_fluids = 2
mpp_lim = T
mixture_err = T
time_stepper = 3
weno_order = 3
weno_eps = 1e-16
weno_Re_flux = F
weno_avg = F
mapped_weno = T
riemann_solver = 2
wave_speeds = 1
avg_state = 2
bc_x%beg = -6
bc_x%end = -6
bc_y%beg = -2
bc_y%end = -3
bc_z%beg = -2
bc_z%end = -3
precision = 2
prim_vars_wrt = T
parallel_io = F
fluid_pp(1)%gamma = 0.1953125
fluid_pp(1)%pi_inf = 409992187.5
fluid_pp(2)%gamma = 2.5000000000000004
fluid_pp(2)%pi_inf = 0.0
&end/
