&user_inputs
run_time_info = F
m = 634
n = 317
p = 317
dt = 1e-08
t_step_start = 0
t_step_stop = 20
t_step_save = 20
model_eqns = 2
alt_soundspeed = F
num_fluids = 2
mpp_lim = F
mixture_err = F
time_stepper = 3
weno_order = 3
weno_eps = 1e-16
weno_Re_flux = F
weno_avg = F
mapped_weno = F
null_weights = F
mp_weno = F
riemann_solver = 1
wave_speeds = 1
avg_state = 2
bc_x%beg = -3
bc_x%end = -3
bc_y%beg = -3
bc_y%end = -3
bc_z%beg = -3
bc_z%end = -3
hypoelasticity = T
fd_order = 4
precision = 2
prim_vars_wrt = T
parallel_io = F
fluid_pp(1)%gamma = 0.2941176470588235
fluid_pp(1)%pi_inf = 776470588.235294
fluid_pp(1)%G = 1000000000.0
fluid_pp(2)%gamma = 2.5000000000000004
fluid_pp(2)%pi_inf = 0.0
fluid_pp(2)%G = 0.0
&end/
