&user_inputs
x_domain%beg = -0.5
x_domain%end = 0.5
y_domain%beg = -0.25
y_domain%end = 0.25
z_domain%beg = -0.25
z_domain%end = 0.25
cyl_coord = F
m = 512
n = 256
p = 256
t_step_start = 0
num_patches = 1
model_eqns = 2
num_fluids = 1
mpp_lim = F
weno_order = 5
bc_x%beg = -3
bc_x%end = -3
bc_y%beg = -3
bc_y%end = -3
bc_z%beg = -3
bc_z%end = -3
ib = T
num_ibs = 1
viscous = T
precision = 2
parallel_io = T
patch_icpp(1)%geometry = 9
patch_icpp(1)%x_centroid = 0.0
patch_icpp(1)%y_centroid = 0.0
patch_icpp(1)%z_centroid = 0.0
patch_icpp(1)%length_x = 1.0
patch_icpp(1)%length_y = 0.5
patch_icpp(1)%length_z = 0.5
patch_icpp(1)%vel(1) = 527.2
patch_icpp(1)%vel(2) = 0.0
patch_icpp(1)%vel(3) = 0.0
patch_icpp(1)%pres = 10918.2549
patch_icpp(1)%alpha_rho(1) = 0.2199
patch_icpp(1)%alpha(1) = 1.0
patch_ib(1)%geometry = 8
patch_ib(1)%x_centroid = -0.003
patch_ib(1)%y_centroid = 0.0
patch_ib(1)%z_centroid = 0.0
patch_ib(1)%radius = 0.05
patch_ib(1)%slip = T
fluid_pp(1)%gamma = 2.5000000000000004
fluid_pp(1)%pi_inf = 0
fluid_pp(1)%Re(1) = 7535533.2
&end/
