&user_inputs
run_time_info = T
cyl_coord = F
m = 512
n = 256
p = 256
dt = 1e-06
t_step_start = 0
t_step_stop = 3000
t_step_save = 50
model_eqns = 2
alt_soundspeed = F
num_fluids = 1
mpp_lim = F
mixture_err = T
time_stepper = 3
weno_order = 5
weno_eps = 1e-16
weno_Re_flux = T
weno_avg = T
avg_state = 2
mapped_weno = T
null_weights = F
mp_weno = T
riemann_solver = 2
wave_speeds = 1
bc_x%beg = -3
bc_x%end = -3
bc_y%beg = -3
bc_y%end = -3
bc_z%beg = -3
bc_z%end = -3
ib = T
num_ibs = 1
fd_order = 2
viscous = T
precision = 2
prim_vars_wrt = T
parallel_io = T
patch_ib(1)%geometry = 8
patch_ib(1)%x_centroid = -0.003
patch_ib(1)%y_centroid = 0.0
patch_ib(1)%z_centroid = 0.0
patch_ib(1)%radius = 0.05
patch_ib(1)%slip = T
fluid_pp(1)%gamma = 2.5000000000000004
fluid_pp(1)%pi_inf = 0
fluid_pp(1)%Re(1) = 7535533.2
&end/
