&user_inputs
x_domain%beg = 0.0
x_domain%end = 1.0
y_domain%beg = 0
y_domain%end = 0.5
z_domain%beg = 0.0
z_domain%end = 0.5
m = 634
n = 317
p = 317
t_step_start = 0
num_patches = 1
model_eqns = 2
num_fluids = 2
mpp_lim = F
weno_order = 5
bc_x%beg = -3
bc_x%end = -3
bc_y%beg = -3
bc_y%end = -3
bc_z%beg = -3
bc_z%end = -3
ib = T
num_ibs = 1
viscous = T
precision = 2
parallel_io = F
patch_icpp(1)%geometry = 9
patch_icpp(1)%x_centroid = 0.5
patch_icpp(1)%y_centroid = 0.25
patch_icpp(1)%z_centroid = 0.25
patch_icpp(1)%length_x = 1.0
patch_icpp(1)%length_y = 0.5
patch_icpp(1)%length_z = 0.5
patch_icpp(1)%vel(1) = 0.1
patch_icpp(1)%vel(2) = 0
patch_icpp(1)%vel(3) = 0
patch_icpp(1)%pres = 1.0
patch_icpp(1)%alpha_rho(1) = 0.8
patch_icpp(1)%alpha(1) = 0.8
patch_icpp(1)%alpha_rho(2) = 0.2
patch_icpp(1)%alpha(2) = 0.2
patch_ib(1)%geometry = 8
patch_ib(1)%x_centroid = 0.25
patch_ib(1)%y_centroid = 0.25
patch_ib(1)%z_centroid = 0.25
patch_ib(1)%radius = 0.1
fluid_pp(1)%gamma = 2.5000000000000004
fluid_pp(1)%pi_inf = 0
fluid_pp(1)%Re(1) = 54000
fluid_pp(2)%gamma = 2.5000000000000004
fluid_pp(2)%pi_inf = 0
fluid_pp(2)%Re(1) = 54000
&end/
