&user_inputs
run_time_info = F
m = 634
n = 317
p = 317
dt = 5e-07
t_step_start = 0
t_step_stop = 20
t_step_save = 20
model_eqns = 2
alt_soundspeed = F
num_fluids = 2
mpp_lim = F
mixture_err = F
time_stepper = 3
weno_order = 5
weno_eps = 1e-16
weno_Re_flux = T
weno_avg = T
mapped_weno = T
null_weights = F
mp_weno = F
riemann_solver = 2
wave_speeds = 1
avg_state = 2
fd_order = 2
bc_x%beg = -3
bc_x%end = -3
bc_y%beg = -3
bc_y%end = -3
bc_z%beg = -3
bc_z%end = -3
ib = T
num_ibs = 1
viscous = T
precision = 2
prim_vars_wrt = T
parallel_io = F
patch_ib(1)%geometry = 8
patch_ib(1)%x_centroid = 0.25
patch_ib(1)%y_centroid = 0.25
patch_ib(1)%z_centroid = 0.25
patch_ib(1)%radius = 0.1
fluid_pp(1)%gamma = 2.5000000000000004
fluid_pp(1)%pi_inf = 0
fluid_pp(1)%Re(1) = 54000
fluid_pp(2)%gamma = 2.5000000000000004
fluid_pp(2)%pi_inf = 0
fluid_pp(2)%Re(1) = 54000
&end/
