&user_inputs
x_domain%beg = -10.0
x_domain%end = 10.0
y_domain%beg = -5.0
y_domain%end = 5.0
z_domain%beg = -5.0
z_domain%end = 5.0
stretch_x = F
cyl_coord = F
m = 634
n = 317
p = 317
t_step_start = 0
num_patches = 2
model_eqns = 2
num_fluids = 1
mpp_lim = F
weno_order = 5
bc_x%beg = -3
bc_x%end = -3
bc_y%beg = -3
bc_y%end = -3
bc_z%beg = -3
bc_z%end = -3
viscous = T
precision = 2
parallel_io = F
patch_icpp(1)%geometry = 9
patch_icpp(1)%x_centroid = 0.0
patch_icpp(1)%y_centroid = 0.0
patch_icpp(1)%z_centroid = 0.0
patch_icpp(1)%length_x = 20.0
patch_icpp(1)%length_y = 10.0
patch_icpp(1)%length_z = 10.0
patch_icpp(1)%vel(1) = 0.0
patch_icpp(1)%vel(2) = 0.0
patch_icpp(1)%vel(3) = 0.0
patch_icpp(1)%pres = 1.0
patch_icpp(1)%alpha_rho(1) = 0.999999999999
patch_icpp(1)%alpha(1) = 1e-12
patch_icpp(1)%r0 = 0.01
patch_icpp(1)%v0 = 0.0
patch_icpp(2)%geometry = 9
patch_icpp(2)%x_centroid = 0.0
patch_icpp(2)%y_centroid = 0.0
patch_icpp(2)%z_centroid = 0.0
patch_icpp(2)%length_x = 5.0
patch_icpp(2)%length_y = 10.0
patch_icpp(2)%length_z = 10.0
patch_icpp(2)%alter_patch(1) = T
patch_icpp(2)%vel(1) = 0.0
patch_icpp(2)%vel(2) = 0.0
patch_icpp(2)%vel(3) = 0.0
patch_icpp(2)%pres = 1.0
patch_icpp(2)%alpha_rho(1) = 0.99996
patch_icpp(2)%alpha(1) = 4e-05
patch_icpp(2)%r0 = 0.01
patch_icpp(2)%v0 = 0.0
fluid_pp(1)%gamma = 0.1639344262295082
fluid_pp(1)%pi_inf = 3515.0647365036225
fluid_pp(1)%Re(1) = 1000.0
bubbles_euler = T
polytropic = T
polydisperse = F
thermal = 3
nb = 1
bub_pp%R0ref = 0.01
bub_pp%p0ref = 1.0
bub_pp%rho0ref = 1.0
bub_pp%ss = 0.0007179866765358992
bub_pp%pv = 0.02308216136195411
bub_pp%mu_l = 9.954269975623244e-05
bub_pp%gam_g = 1.4
&end/
