&user_inputs
run_time_info = F
cyl_coord = F
m = 634
n = 317
p = 317
dt = 2.152816551103589e-06
t_step_start = 0
t_step_stop = 20
t_step_save = 20
model_eqns = 2
alt_soundspeed = F
num_fluids = 1
mpp_lim = F
mixture_err = F
time_stepper = 3
weno_order = 5
weno_eps = 1e-16
weno_Re_flux = F
weno_avg = F
mapped_weno = T
null_weights = F
mp_weno = T
riemann_solver = 2
wave_speeds = 1
avg_state = 2
bc_x%beg = -3
bc_x%end = -3
bc_y%beg = -3
bc_y%end = -3
bc_z%beg = -3
bc_z%end = -3
viscous = T
precision = 2
prim_vars_wrt = T
parallel_io = F
fluid_pp(1)%gamma = 0.1639344262295082
fluid_pp(1)%pi_inf = 3515.0647365036225
fluid_pp(1)%Re(1) = 1000.0
bubbles_euler = T
bubble_model = 3
polytropic = T
polydisperse = F
thermal = 3
nb = 1
bub_pp%R0ref = 0.01
bub_pp%p0ref = 1.0
bub_pp%rho0ref = 1.0
bub_pp%ss = 0.0007179866765358992
bub_pp%pv = 0.02308216136195411
bub_pp%mu_l = 9.954269975623244e-05
bub_pp%gam_g = 1.4
acoustic_source = T
num_source = 1
acoustic(1)%support = 3
acoustic(1)%loc(1) = -5.0
acoustic(1)%loc(2) = 0.0
acoustic(1)%length = 1000.0
acoustic(1)%height = 1000.0
acoustic(1)%npulse = 1
acoustic(1)%dir = 1.0
acoustic(1)%pulse = 1
acoustic(1)%mag = 0.9869232667160128
acoustic(1)%wavelength = 4.916666666666666
&end/
