&user_inputs
x_domain%beg = -3.141592653589793
x_domain%end = 3.141592653589793
y_domain%beg = -3.141592653589793
y_domain%end = 3.141592653589793
z_domain%beg = -3.141592653589793
z_domain%end = 3.141592653589793
m = 399
n = 399
p = 399
cyl_coord = F
t_step_start = 0
num_patches = 1
model_eqns = 2
num_fluids = 1
bc_x%beg = -1
bc_x%end = -1
bc_y%beg = -1
bc_y%end = -1
bc_z%beg = -1
bc_z%end = -1
igr = T
igr_order = 5
viscous = T
precision = 2
parallel_io = F
patch_icpp(1)%geometry = 9
patch_icpp(1)%x_centroid = 0
patch_icpp(1)%y_centroid = 0
patch_icpp(1)%z_centroid = 0
patch_icpp(1)%length_x = 6.283185307179586
patch_icpp(1)%length_y = 6.283185307179586
patch_icpp(1)%length_z = 6.283185307179586
patch_icpp(1)%vel(1) = 0.0
patch_icpp(1)%vel(2) = 0.0
patch_icpp(1)%vel(3) = 0
patch_icpp(1)%pres = 0.0
patch_icpp(1)%hcid = 380
patch_icpp(1)%alpha_rho(1) = 1
patch_icpp(1)%alpha(1) = 1
fluid_pp(1)%gamma = 2.5000000000000004
fluid_pp(1)%pi_inf = 0
fluid_pp(1)%Re(1) = 42.48128632361878
&end/
