&user_inputs
run_time_info = F
m = 399
n = 399
p = 399
cyl_coord = F
dt = 2.0852952660832084e-05
t_step_start = 0
t_step_stop = 20
t_step_save = 20
model_eqns = 2
num_fluids = 1
riemann_solver = 5
time_stepper = 3
bc_x%beg = -1
bc_x%end = -1
bc_y%beg = -1
bc_y%end = -1
bc_z%beg = -1
bc_z%end = -1
igr = T
igr_order = 5
igr_iter_solver = 1
num_igr_iters = 3
num_igr_warm_start_iters = 3
alf_factor = 10
viscous = T
precision = 2
prim_vars_wrt = T
fd_order = 4
parallel_io = F
fluid_pp(1)%gamma = 2.5000000000000004
fluid_pp(1)%pi_inf = 0
fluid_pp(1)%Re(1) = 42.48128632361878
&end/
